<number of tasks>
50

<cycle time>
1000

<order strength>
0.595


<task times>
1 34
2 89
3 107
4 210
5 134
6 48
7 97
8 187
9 65
10 70
11 99
12 244
13 217
14 67
15 195
16 143
17 206
18 185
19 156
20 69
21 114
22 135
23 130
24 132
25 64
26 188
27 134
28 254
29 247
30 77
31 120
32 113
33 123
34 264
35 106
36 36
37 141
38 66
39 26
40 70
41 225
42 173
43 59
44 223
45 54
46 96
47 70
48 133
49 147
50 265

<precedence relations>
1,43
2,14
3,9
4,9
5,15
5,18
5,28
6,9
7,34
7,36
8,10
9,11
9,12
9,13
9,14
9,15
10,11
10,12
10,15
10,18
11,27
11,45
12,16
12,17
12,27
13,33
14,16
14,18
15,22
15,26
15,30
16,19
16,20
16,23
17,22
17,23
17,31
18,21
19,25
19,26
19,28
19,30
19,34
20,24
20,25
20,28
21,25
21,27
21,29
22,24
23,24
24,32
24,33
25,33
26,31
27,31
27,42
27,48
28,36
28,37
29,31
29,33
30,39
31,38
32,34
32,37
32,42
33,35
33,36
33,37
35,40
35,42
36,39
36,41
37,41
37,43
38,39
40,44
40,45
42,44
44,46
44,47
44,50
45,48
45,49

<end>
